objective value:                           -6891.6769
x59                                                 1 	(obj:-113.663)
x139                                                1 	(obj:-158.075)
x159                                                1 	(obj:-102.587)
x168                                                1 	(obj:-262.799)
x174                                                1 	(obj:-258.242)
x176                                                1 	(obj:-229.399)
x198                                                1 	(obj:-641.917)
x225                                                1 	(obj:-251.829)
x228                                                1 	(obj:-444.652)
x266                                                1 	(obj:-389.286)
x284                                                1 	(obj:-67.9169)
x324                                                1 	(obj:-371.374)
x349                                                1 	(obj:-118.2)
x396                                                1 	(obj:-813.727)
x404                                                1 	(obj:-261.915)
x420                                                1 	(obj:-386.005)
x424                                                1 	(obj:-305.086)
x437                                                1 	(obj:-1325.2)
x458                                                1 	(obj:-389.804)
